Problem:    
Rows:       76
Columns:    64
Non-zeros:  208
Status:     OPTIMAL
Objective:  obj = 3.5 (MAXimum)

   No.   Row name   St   Activity     Lower bound   Upper bound    Marginal
------ ------------ -- ------------- ------------- ------------- -------------
     1 r.4          NS             0             0             =          0.25 
     2 r.5          NU             0                           0         < eps
     3 r.6          B             -2                           0 
     4 r.7          B             -4                           0 
     5 r.8          B              0                           0 
     6 r.9          NS             0             0             =          0.75 
     7 r.10         B             -1                           0 
     8 r.11         B             -1                           0 
     9 r.12         NU             0                           0         < eps
    10 r.13         NU             0                           0         < eps
    11 r.14         NU             0                           0          0.25 
    12 r.15         NU             0                           0           0.5 
    13 r.16         B              0                           0 
    14 r.17         B             -4                           0 
    15 r.18         B             -1                           0 
    16 r.19         B             -1                           0 
    17 r.20         B              0                           0 
    18 r.21         B             -2                           0 
    19 r.22         B              0                           0 
    20 r.23         B             -2                           0 
    21 r.24         NU             0                           0         < eps
    22 r.25         NU             0                           0         < eps
    23 r.26         NU             0                           0          0.25 
    24 r.27         NU             0                           0           0.5 
    25 r.28         NU             0                           0         < eps
    26 r.29         NU             0                           0          0.25 
    27 r.30         NU             0                           0         < eps
    28 r.31         NU             0                           0         < eps
    29 r.32         NU             0                           0          0.25 
    30 r.33         NU             0                           0          0.25 
    31 r.34         B              0                           0 
    32 r.35         NU             0                           0          0.25 
    33 r.36         B              0                           0 
    34 r.37         B             -2                           0 
    35 r.38         B             -2                           0 
    36 r.39         NU             0                           0          0.25 
    37 r.40         NU             0                           0         < eps
    38 r.41         NU             0                           0          0.75 
    39 r.42         NU             0                           0         < eps
    40 r.43         NU             0                           0         < eps
    41 r.44         NU             0                           0         < eps
    42 r.45         NU             0                           0         < eps
    43 r.46         NU             0                           0          0.25 
    44 r.47         NU             0                           0           0.5 
    45 r.48         NU             0                           0          0.25 
    46 r.49         B             -2                           0 
    47 r.50         B              0                           0 
    48 r.51         NU             0                           0          0.25 
    49 r.52         NU             0                           0          0.25 
    50 r.53         NU             0                           0         < eps
    51 r.54         B             -1                           0 
    52 r.55         B             -1                           0 
    53 r.56         B              0                           0 
    54 r.57         B              0                           0 
    55 r.58         B              0                           0 
    56 r.59         B             -2                           0 
    57 r.60         NU             0                           0         < eps
    58 r.61         B              0                           0 
    59 r.62         NU             0                           0          0.25 
    60 r.63         B              0                           0 
    61 r.64         NS             1             1             =          0.75 
    62 r.65         NS             1             1             =         < eps
    63 r.66         NS             1             1             =         < eps
    64 r.67         NS             1             1             =          0.25 
    65 r.68         NS             1             1             =          0.75 
    66 r.69         NS             1             1             =          0.25 
    67 r.70         NS             1             1             =          0.25 
    68 r.71         NS             1             1             =          0.25 
    69 r.72         NS             1             1             =         < eps
    70 r.73         NS             1             1             =         < eps
    71 r.74         NS             1             1             =         < eps
    72 r.75         NS             1             1             =         < eps
    73 r.76         NS             1             1             =         < eps
    74 r.77         NS             1             1             =         < eps
    75 r.78         NS             1             1             =           0.5 
    76 r.79         NS             1             1             =           0.5 

   No. Column name  St   Activity     Lower bound   Upper bound    Marginal
------ ------------ -- ------------- ------------- ------------- -------------
     1 V(0,1)       B              2                             
     2 V(0,2)       B              4                             
     3 V(1,1)       B              0                             
     4 V(1,2)       B              1                             
     5 F(1,1)       B              1             0               
     6 F(1,2)       NL             0             0                       < eps
     7 V(3,2)       B              1                             
     8 V(1302,1)    NF             0                                     < eps
     9 F(1302,1)    NL             0             0                       < eps
    10 F(1302,2)    B              1             0               
    11 V(1303,1)    B              2                             
    12 V(1302,2)    NF             0                                     < eps
    13 V(1303,2)    B              3                             
    14 V(2,1)       B              2                             
    15 F(2,1)       NL             0             0                       < eps
    16 F(2,2)       B              1             0               
    17 V(8,1)       B              2                             
    18 V(2,2)       B              0                             
    19 V(3,1)       B              1                             
    20 F(3,1)       B              1             0               
    21 F(3,2)       B              0             0               
    22 V(1204,1)    B              1                             
    23 V(1204,2)    B              2                             
    24 V(1301,1)    B              0                             
    25 V(1301,2)    B              1                             
    26 V(1304,1)    B              2                             
    27 F(1304,1)    NL             0             0                       -0.25 
    28 F(1304,2)    B              1             0               
    29 V(1304,2)    B              2                             
    30 V(8,2)       B              1                             
    31 V(1201,1)    B              2                             
    32 F(1201,1)    NL             0             0                       < eps
    33 F(1201,2)    B              1             0               
    34 V(1202,1)    B              2                             
    35 V(1201,2)    NF             0                                     < eps
    36 V(1202,2)    B              3                             
    37 F(1202,1)    B              1             0               
    38 F(1202,2)    B              0             0               
    39 F(8,1)       NL             0             0                        -0.5 
    40 F(8,2)       B              1             0               
    41 F(1204,1)    NL             0             0                       < eps
    42 F(1204,2)    B              1             0               
    43 F(1303,1)    NL             0             0                       -0.25 
    44 F(1303,2)    B              1             0               
    45 F(0,1)       NL             0             0                        -0.5 
    46 F(0,2)       B              1             0               
    47 V(1101,1)    B              2                             
    48 V(1101,2)    B              3                             
    49 V(1103,1)    B              2                             
    50 F(1103,1)    B              1             0               
    51 F(1103,2)    B              0             0               
    52 V(1103,2)    B              1                             
    53 V(1102,1)    B              2                             
    54 F(1102,1)    B              0             0               
    55 F(1102,2)    B              1             0               
    56 V(1102,2)    B              2                             
    57 F(1101,1)    NL             0             0                       -0.25 
    58 F(1101,2)    B              1             0               
    59 V(1203,1)    B              1                             
    60 V(1203,2)    B              3                             
    61 F(1203,1)    NL             0             0                       < eps
    62 F(1203,2)    B              1             0               
    63 F(1301,1)    NL             0             0                       < eps
    64 F(1301,2)    B              1             0               

Karush-Kuhn-Tucker optimality conditions:

KKT.PE: max.abs.err = 0.00e+00 on row 0
        max.rel.err = 0.00e+00 on row 0
        High quality

KKT.PB: max.abs.err = 0.00e+00 on row 0
        max.rel.err = 0.00e+00 on row 0
        High quality

KKT.DE: max.abs.err = 0.00e+00 on column 0
        max.rel.err = 0.00e+00 on column 0
        High quality

KKT.DB: max.abs.err = 0.00e+00 on row 0
        max.rel.err = 0.00e+00 on row 0
        High quality

End of output
